
Gurobi 11.0.0 (linux64) logging started Tue Sep 17 03:56:47 2024

Set parameter LogFile to value "gurobi.log"
Set parameter InfUnbdInfo to value 1
Gurobi Optimizer version 11.0.0 build v11.0.0rc2 (linux64 - "Ubuntu 22.04.4 LTS")

CPU model: AMD EPYC 7V13 64-Core Processor, instruction set [SSE2|AVX|AVX2]
Thread count: 128 physical cores, 128 logical processors, using up to 32 threads

Optimize a model with 40 rows, 208 columns and 139 nonzeros
Model fingerprint: 0xc636acd4
Model has 164 quadratic constraints
Model has 2 general constraints
Variable types: 47 continuous, 161 integer (0 binary)
Coefficient statistics:
  Matrix range     [1e+00, 2e+05]
  QMatrix range    [1e+00, 2e+05]
  QLMatrix range   [1e+00, 2e+05]
  Objective range  [1e+00, 1e+00]
  Bounds range     [1e+00, 3e+10]
  RHS range        [1e+00, 7e+03]
  QRHS range       [1e+00, 2e+06]
Warning: Model contains large bounds
         Consider reformulating model or setting NumericFocus parameter
         to avoid numerical issues.
Using branch priorities (all 0).
Presolve added 38 rows and 0 columns
Presolve removed 0 rows and 20 columns
Presolve time: 0.00s
Presolved: 569 rows, 297 columns, 1537 nonzeros
Presolved model has 50 SOS constraint(s)
Presolved model has 86 bilinear constraint(s)
Warning: Model contains variables with very large bounds participating
         in product terms.
         Presolve was not able to compute smaller bounds for these variables.
         Consider bounding these variables or reformulating the model.


Solving non-convex MIQCP

Variable types: 60 continuous, 237 integer (90 binary)

Root relaxation: objective 7.099300e+02, 211 iterations, 0.00 seconds (0.00 work units)

    Nodes    |    Current Node    |     Objective Bounds      |     Work
 Expl Unexpl |  Obj  Depth IntInf | Incumbent    BestBd   Gap | It/Node Time

     0     0  709.93004    0  141          -  709.93004      -     -    0s
     0     0  714.46003    0  185          -  714.46003      -     -    0s
H    0     0                    2002200.0000  714.46003   100%     -    0s
H    0     0                    440880.00000  714.46003   100%     -    0s
     0     0 1633.35135    0  101 440880.000 1633.35135   100%     -    0s
     0     0 1765.64887    0   95 440880.000 1765.64887   100%     -    0s
H    0     0                    366200.00000 1770.20365   100%     -    0s
H    0     0                    331020.00000 1770.20365  99.5%     -    0s
     0     0 1773.89117    0  160 331020.000 1773.89117  99.5%     -    0s
     0     0 1773.89117    0  164 331020.000 1773.89117  99.5%     -    0s
H    0     0                    329144.00000 1775.30718  99.5%     -    0s
H    0     0                    329119.00000 1775.30718  99.5%     -    0s
     0     0 1775.57654    0  150 329119.000 1775.57654  99.5%     -    0s
     0     0 1796.34626    0  125 329119.000 1796.34626  99.5%     -    0s
     0     0 1796.34626    0  129 329119.000 1796.34626  99.5%     -    0s
H    0     0                    329082.00000 1796.38120  99.5%     -    0s
     0     0 1796.38120    0  113 329082.000 1796.38120  99.5%     -    0s
     0     0 2057.10445    0  103 329082.000 2057.10445  99.4%     -    0s
H    0     0                    249875.00000 2063.97349  99.2%     -    0s
     0     0 2063.97349    0  107 249875.000 2063.97349  99.2%     -    0s
     0     0 2063.97349    0  112 249875.000 2063.97349  99.2%     -    0s
     0     0 2063.97349    0   96 249875.000 2063.97349  99.2%     -    0s
H    0     0                    181775.00000 2063.97349  98.9%     -    0s
     0     0 2084.06442    0   97 181775.000 2084.06442  98.9%     -    0s
     0     0 3803.00216    0   97 181775.000 3803.00216  97.9%     -    0s
     0     0 3815.01215    0   96 181775.000 3815.01215  97.9%     -    0s
H    0     0                    126825.00000 3815.01215  97.0%     -    0s
     0     0 9870.82446    0   96 126825.000 9870.82446  92.2%     -    0s
     0     0 9870.82446    0   97 126825.000 9870.82446  92.2%     -    0s
H    0     0                    108920.00000 9870.82446  90.9%     -    0s
H    0     0                    68920.000000 9870.82446  85.7%     -    0s
     0     0 10105.0200    0   89 68920.0000 10105.0200  85.3%     -    0s
     0     0 10105.0200    0   95 68920.0000 10105.0200  85.3%     -    0s
H    0     0                    67330.000000 10105.0200  85.0%     -    0s
H    0     0                    67155.000000 10105.0200  85.0%     -    0s
     0     0 10117.9749    0   95 67155.0000 10117.9749  84.9%     -    0s
     0     0 10120.9204    0   97 67155.0000 10120.9204  84.9%     -    0s
     0     0 10121.9479    0   97 67155.0000 10121.9479  84.9%     -    0s
H    0     0                    66830.000000 10121.9479  84.9%     -    0s
     0     0 10124.9799    0   97 66830.0000 10124.9799  84.8%     -    0s
     0     0 10125.9502    0   97 66830.0000 10125.9502  84.8%     -    0s
H    0     0                    32400.000000 10125.9502  68.7%     -    0s
     0     0 10138.1159    0   99 32400.0000 10138.1159  68.7%     -    0s
     0     0 10138.1159    0  109 32400.0000 10138.1159  68.7%     -    0s
     0     0 10138.1159    0   57 32400.0000 10138.1159  68.7%     -    0s
     0     0 10138.1159    0   57 32400.0000 10138.1159  68.7%     -    0s
H    0     0                    17330.000000 10138.1159  41.5%     -    0s
     0     0 10138.1159    0   51 17330.0000 10138.1159  41.5%     -    0s
     0     0 10138.1159    0   75 17330.0000 10138.1159  41.5%     -    0s
     0     0 10138.1159    0   62 17330.0000 10138.1159  41.5%     -    0s
     0     0 10144.4856    0   62 17330.0000 10144.4856  41.5%     -    0s
     0     0 10148.3037    0   76 17330.0000 10148.3037  41.4%     -    0s
H    0     0                    16067.000000 10161.1953  36.8%     -    0s
H    0     0                    15917.000000 10161.1953  36.2%     -    0s
     0     0 10161.1953    0   71 15917.0000 10161.1953  36.2%     -    0s
     0     0 10162.0372    0   72 15917.0000 10162.0372  36.2%     -    0s
     0     0 10167.7865    0   84 15917.0000 10167.7865  36.1%     -    0s
     0     0 10169.8676    0   48 15917.0000 10169.8676  36.1%     -    0s
     0     0 10169.9445    0   73 15917.0000 10169.9445  36.1%     -    0s
     0     0 10203.1918    0   85 15917.0000 10203.1918  35.9%     -    0s
H    0     0                    15892.000000 10203.1918  35.8%     -    0s
     0     0 10274.2380    0   85 15892.0000 10274.2380  35.3%     -    0s
     0     0 10286.2380    0   71 15892.0000 10286.2380  35.3%     -    0s
     0     0 10320.7392    0   71 15892.0000 10320.7392  35.1%     -    0s
     0     0 10438.2999    0   71 15892.0000 10438.2999  34.3%     -    0s
     0     0 10546.3006    0   74 15892.0000 10546.3006  33.6%     -    0s
     0     0 10988.8767    0   83 15892.0000 10988.8767  30.9%     -    0s
     0     0 11372.8435    0   83 15892.0000 11372.8435  28.4%     -    0s
     0     0 11565.3280    0   73 15892.0000 11565.3280  27.2%     -    0s
     0     0 11577.4988    0   74 15892.0000 11577.4988  27.1%     -    0s
     0     0 11577.4988    0   83 15892.0000 11577.4988  27.1%     -    0s
     0     0 11577.4988    0   80 15892.0000 11577.4988  27.1%     -    1s
     0     0 11577.4988    0   78 15892.0000 11577.4988  27.1%     -    1s
     0     2 11577.4988    0   78 15892.0000 11577.4988  27.1%     -    1s
H   13     8                    15886.000000 11577.4988  27.1%  14.7    1s

Cutting planes:
  Gomory: 4
  Implied bound: 6
  MIR: 34
  StrongCG: 2
  Mod-K: 1
  RLT: 27

Explored 593 nodes (4265 simplex iterations) in 1.57 seconds (0.15 work units)
Thread count was 32 (of 128 available processors)

Solution count 10: 15886 15892 15917 ... 68920

Optimal solution found (tolerance 1.00e-10)
Best objective 1.588600000000e+04, best bound 1.588600000000e+04, gap 0.0000%
